1722994
10,5,40,37,6,66,63,29,24,60,23,46,64,44,67,34,50,38,61,36,52,7,35,58,15,14,57,8,16,26,1,47,3,19,12,53,0,11,28,59,22,48,18,4,39,55,31,41,2,20,62,27,49,43,9,17,56,32,51,13,30,21,42,45,33,54,25,65,10